42
1 0 44
2 0 52
2 1 7
3 0 3
3 1 29
3 2 45
4 0 50
4 1 18
4 2 25
4 3 47
5 0 16
5 1 39
5 2 59
5 3 18
5 4 2
6 0 12
6 1 4
6 2 43
6 3 26
6 4 46
6 5 51
7 0 18
7 1 17
7 2 57
7 3 27
7 4 21
7 5 38
7 6 9
8 0 22
8 1 22
8 2 19
8 3 45
8 4 15
8 5 54
8 6 45
8 7 45
9 0 13
9 1 42
9 2 44
9 3 6
9 4 47
9 5 23
9 6 9
9 7 34
9 8 28
10 0 10
10 1 41
10 2 19
10 3 54
10 4 1
10 5 5
10 6 11
10 7 55
10 8 7
10 9 32
11 0 13
11 1 20
11 2 59
11 3 16
11 4 17
11 5 21
11 6 20
11 7 11
11 8 39
11 9 22
11 10 25
12 0 25
12 1 54
12 2 4
12 3 46
12 4 11
12 5 26
12 6 10
12 7 20
12 8 50
12 9 34
12 10 31
12 11 25
13 0 36
13 1 3
13 2 5
13 3 6
13 4 57
13 5 16
13 6 9
13 7 55
13 8 46
13 9 41
13 10 45
13 11 54
13 12 57
14 0 9
14 1 15
14 2 26
14 3 35
14 4 9
14 5 19
14 6 30
14 7 23
14 8 13
14 9 8
14 10 7
14 11 47
14 12 2
14 13 13
15 0 7
15 1 50
15 2 45
15 3 16
15 4 48
15 5 52
15 6 51
15 7 11
15 8 41
15 9 33
15 10 35
15 11 44
15 12 36
15 13 53
15 14 22
16 0 54
16 1 5
16 2 9
16 3 12
16 4 39
16 5 22
16 6 51
16 7 46
16 8 46
16 9 47
16 10 18
16 11 41
16 12 57
16 13 10
16 14 10
16 15 17
17 0 19
17 1 35
17 2 28
17 3 31
17 4 2
17 5 46
17 6 28
17 7 30
17 8 43
17 9 38
17 10 36
17 11 9
17 12 49
17 13 1
17 14 37
17 15 9
17 16 6
18 0 31
18 1 1
18 2 26
18 3 51
18 4 8
18 5 9
18 6 34
18 7 49
18 8 46
18 9 59
18 10 57
18 11 29
18 12 5
18 13 44
18 14 36
18 15 28
18 16 19
18 17 43
19 0 3
19 1 14
19 2 48
19 3 12
19 4 22
19 5 4
19 6 28
19 7 4
19 8 48
19 9 24
19 10 26
19 11 31
19 12 9
19 13 45
19 14 44
19 15 24
19 16 47
19 17 40
19 18 32
20 0 22
20 1 26
20 2 49
20 3 17
20 4 28
20 5 40
20 6 57
20 7 6
20 8 39
20 9 58
20 10 14
20 11 2
20 12 17
20 13 38
20 14 20
20 15 48
20 16 37
20 17 56
20 18 20
20 19 38
21 0 57
21 1 39
21 2 11
21 3 56
21 4 53
21 5 13
21 6 15
21 7 5
21 8 44
21 9 33
21 10 24
21 11 29
21 12 11
21 13 32
21 14 23
21 15 50
21 16 46
21 17 1
21 18 48
21 19 59
21 20 47
22 0 12
22 1 33
22 2 3
22 3 17
22 4 11
22 5 42
22 6 37
22 7 53
22 8 14
22 9 19
22 10 6
22 11 19
22 12 29
22 13 32
22 14 51
22 15 36
22 16 14
22 17 52
22 18 9
22 19 52
22 20 47
22 21 41
23 0 32
23 1 45
23 2 46
23 3 13
23 4 6
23 5 54
23 6 55
23 7 33
23 8 27
23 9 31
23 10 22
23 11 46
23 12 38
23 13 20
23 14 31
23 15 32
23 16 17
23 17 43
23 18 5
23 19 22
23 20 34
23 21 4
23 22 6
24 0 22
24 1 5
24 2 3
24 3 36
24 4 42
24 5 13
24 6 8
24 7 44
24 8 31
24 9 9
24 10 48
24 11 5
24 12 2
24 13 15
24 14 42
24 15 43
24 16 45
24 17 30
24 18 44
24 19 17
24 20 25
24 21 28
24 22 21
24 23 51
25 0 45
25 1 33
25 2 18
25 3 39
25 4 19
25 5 2
25 6 56
25 7 49
25 8 6
25 9 34
25 10 4
25 11 39
25 12 30
25 13 41
25 14 2
25 15 11
25 16 2
25 17 11
25 18 27
25 19 56
25 20 29
25 21 23
25 22 48
25 23 20
25 24 51
26 0 51
26 1 40
26 2 51
26 3 14
26 4 56
26 5 31
26 6 11
26 7 58
26 8 17
26 9 9
26 10 49
26 11 21
26 12 4
26 13 27
26 14 50
26 15 27
26 16 42
26 17 47
26 18 58
26 19 39
26 20 23
26 21 20
26 22 54
26 23 28
26 24 19
26 25 5
27 0 43
27 1 4
27 2 57
27 3 29
27 4 47
27 5 9
27 6 25
27 7 53
27 8 30
27 9 58
27 10 42
27 11 8
27 12 41
27 13 17
27 14 47
27 15 2
27 16 33
27 17 58
27 18 19
27 19 38
27 20 38
27 21 28
27 22 45
27 23 39
27 24 53
27 25 4
27 26 4
28 0 54
28 1 5
28 2 3
28 3 24
28 4 21
28 5 6
28 6 59
28 7 10
28 8 36
28 9 35
28 10 37
28 11 37
28 12 7
28 13 32
28 14 23
28 15 59
28 16 34
28 17 7
28 18 17
28 19 18
28 20 53
28 21 21
28 22 53
28 23 53
28 24 9
28 25 21
28 26 21
28 27 10
29 0 10
29 1 49
29 2 2
29 3 47
29 4 37
29 5 40
29 6 55
29 7 51
29 8 59
29 9 28
29 10 9
29 11 19
29 12 31
29 13 11
29 14 55
29 15 50
29 16 10
29 17 36
29 18 5
29 19 1
29 20 11
29 21 15
29 22 54
29 23 21
29 24 47
29 25 37
29 26 51
29 27 44
29 28 3
30 0 15
30 1 25
30 2 4
30 3 55
30 4 44
30 5 11
30 6 18
30 7 15
30 8 50
30 9 5
30 10 10
30 11 46
30 12 22
30 13 56
30 14 21
30 15 58
30 16 15
30 17 15
30 18 49
30 19 51
30 20 5
30 21 26
30 22 23
30 23 9
30 24 14
30 25 23
30 26 9
30 27 41
30 28 7
30 29 40
31 0 2
31 1 42
31 2 7
31 3 56
31 4 40
31 5 28
31 6 31
31 7 25
31 8 27
31 9 22
31 10 21
31 11 11
31 12 11
31 13 26
31 14 52
31 15 17
31 16 7
31 17 1
31 18 13
31 19 12
31 20 3
31 21 57
31 22 28
31 23 33
31 24 35
31 25 26
31 26 3
31 27 3
31 28 4
31 29 29
31 30 18
32 0 2
32 1 40
32 2 47
32 3 36
32 4 8
32 5 39
32 6 14
32 7 24
32 8 42
32 9 38
32 10 18
32 11 58
32 12 32
32 13 35
32 14 28
32 15 56
32 16 23
32 17 50
32 18 51
32 19 37
32 20 47
32 21 13
32 22 1
32 23 48
32 24 4
32 25 16
32 26 43
32 27 52
32 28 24
32 29 57
32 30 53
32 31 47
33 0 28
33 1 35
33 2 7
33 3 42
33 4 57
33 5 31
33 6 21
33 7 20
33 8 9
33 9 10
33 10 2
33 11 55
33 12 58
33 13 19
33 14 13
33 15 57
33 16 47
33 17 32
33 18 51
33 19 30
33 20 14
33 21 34
33 22 17
33 23 7
33 24 11
33 25 42
33 26 12
33 27 32
33 28 52
33 29 38
33 30 15
33 31 45
33 32 13
34 0 12
34 1 31
34 2 10
34 3 10
34 4 6
34 5 43
34 6 26
34 7 42
34 8 40
34 9 2
34 10 13
34 11 48
34 12 52
34 13 36
34 14 58
34 15 11
34 16 22
34 17 23
34 18 52
34 19 55
34 20 19
34 21 41
34 22 41
34 23 25
34 24 17
34 25 37
34 26 51
34 27 48
34 28 15
34 29 34
34 30 20
34 31 9
34 32 48
34 33 51
35 0 47
35 1 3
35 2 53
35 3 44
35 4 24
35 5 15
35 6 31
35 7 14
35 8 7
35 9 37
35 10 52
35 11 8
35 12 16
35 13 20
35 14 9
35 15 43
35 16 2
35 17 23
35 18 7
35 19 39
35 20 40
35 21 41
35 22 42
35 23 7
35 24 7
35 25 20
35 26 39
35 27 20
35 28 58
35 29 39
35 30 3
35 31 49
35 32 59
35 33 28
35 34 29
36 0 21
36 1 50
36 2 25
36 3 14
36 4 55
36 5 28
36 6 19
36 7 20
36 8 45
36 9 38
36 10 1
36 11 37
36 12 57
36 13 59
36 14 2
36 15 22
36 16 5
36 17 19
36 18 5
36 19 38
36 20 6
36 21 25
36 22 18
36 23 53
36 24 27
36 25 56
36 26 38
36 27 10
36 28 56
36 29 4
36 30 43
36 31 58
36 32 51
36 33 45
36 34 29
36 35 52
37 0 40
37 1 16
37 2 54
37 3 8
37 4 50
37 5 51
37 6 53
37 7 58
37 8 58
37 9 59
37 10 12
37 11 40
37 12 10
37 13 26
37 14 48
37 15 55
37 16 13
37 17 8
37 18 10
37 19 31
37 20 10
37 21 39
37 22 15
37 23 36
37 24 21
37 25 42
37 26 25
37 27 22
37 28 52
37 29 55
37 30 19
37 31 29
37 32 10
37 33 51
37 34 30
37 35 22
37 36 57
38 0 6
38 1 26
38 2 12
38 3 14
38 4 46
38 5 3
38 6 17
38 7 25
38 8 52
38 9 7
38 10 6
38 11 13
38 12 15
38 13 52
38 14 5
38 15 56
38 16 5
38 17 57
38 18 14
38 19 50
38 20 19
38 21 25
38 22 57
38 23 14
38 24 18
38 25 16
38 26 24
38 27 11
38 28 29
38 29 10
38 30 50
38 31 56
38 32 17
38 33 48
38 34 27
38 35 46
38 36 2
38 37 23
39 0 26
39 1 28
39 2 48
39 3 10
39 4 43
39 5 53
39 6 50
39 7 49
39 8 28
39 9 23
39 10 14
39 11 23
39 12 55
39 13 40
39 14 30
39 15 44
39 16 46
39 17 52
39 18 24
39 19 5
39 20 48
39 21 29
39 22 39
39 23 49
39 24 26
39 25 40
39 26 32
39 27 47
39 28 34
39 29 4
39 30 49
39 31 38
39 32 46
39 33 1
39 34 14
39 35 1
39 36 54
39 37 55
39 38 28
40 0 45
40 1 22
40 2 8
40 3 27
40 4 14
40 5 47
40 6 31
40 7 23
40 8 27
40 9 57
40 10 43
40 11 47
40 12 46
40 13 2
40 14 42
40 15 32
40 16 15
40 17 29
40 18 1
40 19 35
40 20 43
40 21 23
40 22 57
40 23 59
40 24 45
40 25 47
40 26 44
40 27 19
40 28 23
40 29 33
40 30 52
40 31 30
40 32 36
40 33 36
40 34 47
40 35 55
40 36 8
40 37 43
40 38 22
40 39 7
41 0 36
41 1 12
41 2 40
41 3 24
41 4 36
41 5 57
41 6 17
41 7 22
41 8 47
41 9 11
41 10 44
41 11 9
41 12 19
41 13 10
41 14 34
41 15 33
41 16 5
41 17 13
41 18 12
41 19 51
41 20 44
41 21 53
41 22 2
41 23 38
41 24 29
41 25 39
41 26 47
41 27 2
41 28 37
41 29 43
41 30 26
41 31 12
41 32 4
41 33 5
41 34 27
41 35 55
41 36 52
41 37 29
41 38 18
41 39 52
41 40 31
